50
90.0
0 49 95.96 3.58
1 48 93.81 3.48
2 47 95.79 3.54
3 46 95.69 3.58
4 45 97.8 3.61
5 44 100.0 3.65
6 43 97.7 3.59
7 42 97.64 3.61
8 41 100.0 3.65
9 40 100.0 3.65
10 39 94.92 3.57
11 38 92.18 3.44
12 37 94.65 3.51
13 36 94.5 3.56
14 35 97.17 3.6
15 34 100.0 3.65
16 33 97.0 3.57
17 32 96.91 3.6
18 31 100.0 3.65
19 30 100.0 3.65
20 29 93.17 3.54
21 28 89.39 3.37
22 27 92.67 3.45
23 26 92.38 3.52
24 25 96.04 3.58
25 24 100.0 3.65
26 23 95.69 3.53
27 22 95.5 3.58
28 21 100.0 3.65
29 20 100.0 3.65
30 19 89.58 3.48
31 18 83.5 3.21
32 17 88.35 3.34
33 16 87.62 3.44
34 15 93.4 3.54
35 14 100.0 3.65
36 13 92.38 3.45
37 12 91.75 3.51
38 11 100.0 3.65
39 10 100.0 3.65
40 9 78.0 3.28
41 8 62.87 2.66
42 7 71.71 2.89
43 6 67.0 3.1
44 5 80.2 3.32
45 4 100.0 3.65
46 3 67.0 2.77
47 2 50.5 2.83
48 1 100.0 3.65
